
# PYTHONPATH must include directory above plugin directory.
#     Define either externally or here, then import plugin.
sys.path.insert(0, './..')
print sys
#import csx4psi

molecule {
O
H 1 R
H 1 R 2 A

R = .9
A = 104.5
}

set {
  basis sto-3g
}

set csx4psi {
  write_csx on
}

energy('scf')
compare_csx()  #TEST

